This is Ipopt version 3.14.11, running with linear solver MUMPS 5.4.1.

Number of nonzeros in equality constraint Jacobian...:    74896
Number of nonzeros in inequality constraint Jacobian.:        0
Number of nonzeros in Lagrangian Hessian.............:        0

Total number of variables............................:      302
                     variables with only lower bounds:        1
                variables with lower and upper bounds:       61
                     variables with only upper bounds:        0
Total number of equality constraints.................:      248
Total number of inequality constraints...............:        0
        inequality constraints with only lower bounds:        0
   inequality constraints with lower and upper bounds:        0
        inequality constraints with only upper bounds:        0

iter    objective    inf_pr   inf_du lg(mu)  ||d||  lg(rg) alpha_du alpha_pr  ls
   0  0.0000000e+00 1.12e+01 5.28e-01   0.0 0.00e+00    -  0.00e+00 0.00e+00   0
   1  1.7572313e+00 5.31e+00 4.68e+01  -0.5 2.68e+00    -  6.72e-01 1.00e+00h  1
   2  1.6548431e+01 3.45e+00 1.04e+02   0.2 3.21e+00    -  3.54e-01 1.00e+00h  1
   3  1.9013443e+01 2.69e+00 7.08e+01  -0.2 2.96e+00    -  1.00e+00 4.43e-01h  1
   4  2.0205183e+01 2.83e+00 3.68e+01  -0.4 1.25e+00    -  1.00e+00 5.00e-01h  2
   5  3.7316504e+01 1.92e+00 1.71e+01  -0.6 3.92e+00    -  9.91e-01 5.42e-01h  1
   6  4.3527151e+01 1.71e+00 2.21e+01  -0.3 6.43e+00    -  1.00e+00 1.63e-01h  1
   7  5.0895296e+01 1.52e+00 5.15e+01  -0.3 1.06e+01    -  8.59e-01 1.89e-01h  1
   8  5.3644137e+01 1.39e+00 9.34e+01   0.0 1.89e+01    -  1.00e+00 1.26e-01h  1
   9  5.4370893e+01 1.25e+00 1.95e+02   0.5 2.66e+01    -  7.65e-01 1.51e-01f  1
iter    objective    inf_pr   inf_du lg(mu)  ||d||  lg(rg) alpha_du alpha_pr  ls
  10  2.6547451e+01 3.31e+00 1.35e+03   2.4 1.63e+02    -  9.44e-02 4.23e-02f  1
  11  2.1716116e+01 3.95e-01 1.14e+02   0.9 1.79e+00    -  9.59e-01 1.00e+00f  1
  12  1.9602954e+01 7.65e-02 1.33e+00  -0.4 4.16e-01    -  8.93e-01 1.00e+00f  1
  13  3.5393601e+00 4.54e+01 1.75e+02  -0.7 5.21e+00    -  3.59e-01 1.00e+00f  1
  14  1.9300657e+00 1.77e+01 9.34e+00  -0.3 1.23e+00    -  1.00e+00 1.00e+00h  1
  15  2.8389166e+00 8.10e+00 3.64e+00  -0.3 1.23e+00    -  1.00e+00 1.00e+00h  1
  16  3.6733362e+00 6.07e+00 4.67e+00  -0.8 1.65e+00    -  9.99e-01 3.09e-01h  2
  17  8.1525445e+00 1.96e+00 9.13e+00  -1.6 1.64e+00    -  9.99e-01 1.00e+00h  1
  18  8.4004542e+00 3.05e-01 6.64e+00  -2.2 4.17e-01    -  9.99e-01 1.00e+00h  1
  19  7.7232069e+00 1.14e+00 1.43e+00  -2.0 7.95e-01    -  1.00e+00 1.00e+00h  1
iter    objective    inf_pr   inf_du lg(mu)  ||d||  lg(rg) alpha_du alpha_pr  ls
  20  7.8926463e+00 3.28e-01 1.91e+00  -2.8 3.99e-01    -  1.00e+00 1.00e+00h  1
  21  8.0913499e+00 1.91e-02 2.54e-01  -4.2 2.01e-01    -  1.00e+00 1.00e+00h  1
  22  8.0602900e+00 7.64e-02 7.92e-01  -5.1 4.54e-01    -  1.00e+00 1.00e+00h  1
  23  8.0498823e+00 3.48e-02 6.88e-01  -5.8 2.83e-01    -  1.00e+00 1.00e+00h  1
  24  8.0390320e+00 6.38e-03 1.68e-01  -6.6 1.41e-01    -  1.00e+00 1.00e+00h  1
  25  8.0385205e+00 4.27e-04 1.51e-01  -8.2 2.26e-02    -  1.00e+00 1.00e+00h  1
  26  8.0385258e+00 1.13e-04 2.47e-02 -10.0 9.20e-03    -  1.00e+00 1.00e+00h  1
  27  8.0385150e+00 9.46e-05 1.55e-02 -11.0 1.12e-02    -  1.00e+00 1.00e+00h  1
  28  8.0385655e+00 6.94e-06 5.21e-01 -11.0 2.18e-01    -  1.00e+00 1.00e+00H  1
  29  8.0383906e+00 1.03e-03 5.86e-01 -11.0 4.53e-01    -  1.00e+00 6.25e-02h  5
iter    objective    inf_pr   inf_du lg(mu)  ||d||  lg(rg) alpha_du alpha_pr  ls
  30  8.0420110e+00 4.11e-04 6.55e-01 -11.0 1.67e-01    -  1.00e+00 1.00e+00H  1
  31  8.0396701e+00 1.81e-02 2.47e-02 -11.0 1.25e-01    -  1.00e+00 1.00e+00h  1
  32  8.0383998e+00 3.12e-03 2.11e-01 -11.0 8.84e-02    -  1.00e+00 1.00e+00h  1
  33  8.0367132e+00 2.23e-03 2.06e-01 -11.0 2.96e-02    -  1.00e+00 1.00e+00h  1
  34  8.0380746e+00 1.26e-03 1.23e-01 -11.0 9.98e-02    -  1.00e+00 1.00e+00H  1
  35  8.0408796e+00 2.74e-04 8.00e-01 -11.0 2.54e-01    -  1.00e+00 1.00e+00H  1
  36  8.0392935e+00 1.05e-02 4.14e-01 -11.0 1.74e-01    -  1.00e+00 1.00e+00h  1
  37  8.0389339e+00 5.87e-03 4.02e-01 -11.0 2.69e-01    -  1.00e+00 1.00e+00H  1
  38  8.0592289e+00 9.18e-06 3.22e-01 -11.0 2.24e-01    -  1.00e+00 1.00e+00H  1
  39  8.0374557e+00 2.57e-02 4.46e-02 -11.0 2.58e-01    -  1.00e+00 1.00e+00f  1
iter    objective    inf_pr   inf_du lg(mu)  ||d||  lg(rg) alpha_du alpha_pr  ls
  40  8.0371664e+00 9.86e-05 3.59e-02 -11.0 1.26e-02    -  1.00e+00 1.00e+00h  1
  41  8.0372578e+00 3.50e-05 2.23e-01 -11.0 8.25e-02    -  1.00e+00 1.00e+00H  1
  42  8.0372506e+00 9.95e-05 2.47e-01 -11.0 4.98e-01    -  1.00e+00 1.56e-02h  7
  43  8.0371965e+00 1.14e-04 4.82e-02 -11.0 5.33e-02    -  1.00e+00 1.00e+00H  1
  44  8.0373318e+00 2.33e-05 9.64e-02 -11.0 8.16e-02    -  1.00e+00 1.00e+00H  1
  45  8.0372112e+00 3.96e-04 4.10e-02 -11.0 7.64e-02    -  1.00e+00 1.00e+00H  1
  46  8.0378554e+00 2.64e-05 9.75e-02 -11.0 4.35e-02    -  1.00e+00 1.00e+00H  1
  47  8.0370031e+00 1.24e-03 4.15e-03 -11.0 4.27e-02    -  1.00e+00 1.00e+00h  1
  48  8.0371232e+00 3.55e-05 2.41e-02 -11.0 6.75e-03    -  1.00e+00 1.00e+00h  1
  49  8.0371011e+00 2.58e-05 1.85e-02 -11.0 5.32e-03    -  1.00e+00 1.00e+00h  1
iter    objective    inf_pr   inf_du lg(mu)  ||d||  lg(rg) alpha_du alpha_pr  ls
  50  8.0371111e+00 2.71e-06 1.19e-02 -11.0 1.96e-03    -  1.00e+00 1.00e+00h  1
  51  8.0371106e+00 1.44e-06 2.38e-03 -11.0 1.41e-03    -  1.00e+00 1.00e+00h  1
  52  8.0371103e+00 1.81e-06 5.80e-03 -11.0 1.57e-03    -  1.00e+00 1.00e+00h  1
  53  8.0371095e+00 2.56e-07 3.16e-02 -11.0 1.19e-02    -  1.00e+00 1.00e+00H  1
  54  8.0372253e+00 4.17e-08 2.24e-03 -11.0 3.04e-02    -  1.00e+00 1.00e+00H  1
  55  8.0371806e+00 3.88e-04 8.50e-03 -11.0 2.85e-02    -  1.00e+00 1.00e+00h  1
  56  8.0371127e+00 4.86e-05 3.36e-02 -11.0 6.03e-03    -  1.00e+00 1.00e+00h  1
  57  8.0370723e+00 4.28e-05 2.30e-03 -11.0 5.71e-03    -  1.00e+00 1.00e+00h  1
  58  8.0371082e+00 5.11e-08 2.51e-05 -11.0 2.36e-04    -  1.00e+00 1.00e+00h  1
  59  8.0371082e+00 1.56e-09 7.12e-05 -11.0 1.23e-03    -  1.00e+00 1.00e+00H  1
iter    objective    inf_pr   inf_du lg(mu)  ||d||  lg(rg) alpha_du alpha_pr  ls
  60  8.0371081e+00 4.82e-09 7.30e-05 -11.0 2.98e-03    -  1.00e+00 1.00e+00H  1
  61  8.0371093e+00 2.41e-10 1.19e-04 -11.0 6.54e-03    -  1.00e+00 1.00e+00H  1
  62  8.0371124e+00 5.77e-11 4.18e-04 -11.0 4.13e-03    -  1.00e+00 1.00e+00H  1
  63  8.0371078e+00 1.40e-07 5.80e-03 -11.0 7.80e-03    -  1.00e+00 1.00e+00H  1
  64  8.0371140e+00 6.09e-08 7.12e-04 -11.0 6.92e-03    -  1.00e+00 1.00e+00H  1
  65  8.0371035e+00 1.62e-05 1.31e-02 -11.0 3.76e-03    -  1.00e+00 1.00e+00h  1
  66  8.0371129e+00 1.66e-06 3.55e-02 -11.0 1.24e-02    -  1.00e+00 1.00e+00H  1
  67  8.0371107e+00 2.81e-08 3.85e-04 -11.0 8.31e-03    -  1.00e+00 1.00e+00H  1
  68  8.0371158e+00 2.80e-10 4.77e-04 -11.0 1.08e-02    -  1.00e+00 1.00e+00H  1
  69  8.0371091e+00 5.00e-08 2.29e-04 -11.0 5.02e-03    -  1.00e+00 1.00e+00H  1
iter    objective    inf_pr   inf_du lg(mu)  ||d||  lg(rg) alpha_du alpha_pr  ls
  70  8.0371085e+00 3.30e-09 1.97e-04 -11.0 4.94e-03    -  1.00e+00 1.00e+00H  1
  71  8.0371082e+00 1.55e-06 3.72e-03 -11.0 2.29e-03    -  1.00e+00 1.00e+00h  1
  72  8.0371073e+00 2.66e-06 6.40e-03 -11.0 7.69e-04    -  1.00e+00 1.00e+00h  1
  73  8.0371066e+00 1.73e-06 1.09e-03 -11.0 5.67e-04    -  1.00e+00 1.00e+00h  1
  74  8.0371077e+00 7.57e-09 9.59e-06 -11.0 1.02e-04    -  1.00e+00 1.00e+00h  1
  75  8.0371077e+00 1.20e-11 1.58e-05 -11.0 2.76e-04    -  1.00e+00 1.00e+00H  1
  76  8.0371077e+00 2.49e-08 1.71e-05 -11.0 1.20e-04    -  1.00e+00 1.00e+00h  1
  77  8.0371077e+00 1.14e-08 1.05e-05 -11.0 2.02e-04    -  1.00e+00 1.00e+00h  1
  78  8.0371077e+00 1.75e-09 1.47e-06 -11.0 9.73e-05    -  1.00e+00 1.00e+00h  1
  79  8.0371077e+00 1.65e-09 1.56e-06 -11.0 3.62e-05    -  1.00e+00 1.00e+00h  1
iter    objective    inf_pr   inf_du lg(mu)  ||d||  lg(rg) alpha_du alpha_pr  ls
  80  8.0371079e+00 9.99e-12 1.01e-04 -11.0 1.75e-03    -  1.00e+00 1.00e+00H  1
  81  8.0371078e+00 7.46e-07 1.06e-02 -11.0 8.54e-04    -  1.00e+00 1.00e+00h  1
  82  8.0371078e+00 2.10e-08 5.28e-05 -11.0 2.80e-03    -  1.00e+00 1.00e+00H  1
  83  8.0371083e+00 2.52e-12 2.11e-04 -11.0 1.96e-03    -  1.00e+00 1.00e+00H  1
  84  8.0371074e+00 1.35e-06 1.15e-03 -11.0 1.21e-03    -  1.00e+00 1.00e+00h  1
  85  8.0371077e+00 1.44e-07 2.24e-03 -11.0 4.31e-04    -  1.00e+00 1.00e+00h  1
  86  8.0371077e+00 5.64e-08 1.39e-05 -11.0 2.64e-04    -  1.00e+00 1.00e+00h  1
  87  8.0371077e+00 8.58e-08 7.94e-06 -11.0 3.00e-04    -  1.00e+00 1.00e+00h  1
  88  8.0371077e+00 1.25e-11 2.38e-05 -11.0 2.86e-04    -  1.00e+00 1.00e+00H  1
  89  8.0371077e+00 1.59e-13 2.75e-05 -11.0 3.68e-04    -  1.00e+00 1.00e+00H  1
iter    objective    inf_pr   inf_du lg(mu)  ||d||  lg(rg) alpha_du alpha_pr  ls
  90  8.0371077e+00 2.97e-08 1.86e-05 -11.0 7.77e-04    -  1.00e+00 2.50e-01h  3
  91  8.0371077e+00 1.93e-13 2.97e-05 -11.0 5.36e-04    -  1.00e+00 1.00e+00H  1
  92  8.0371077e+00 8.18e-09 1.70e-05 -11.0 1.47e-03    -  1.00e+00 6.25e-02h  5
  93  8.0371077e+00 1.40e-07 9.52e-04 -11.0 4.27e-04    -  1.00e+00 1.00e+00h  1
  94  8.0371077e+00 6.89e-08 8.16e-06 -11.0 3.50e-04    -  1.00e+00 5.00e-01h  2
  95  8.0371077e+00 4.02e-08 2.25e-06 -11.0 1.92e-04    -  1.00e+00 1.00e+00h  1
  96  8.0371077e+00 4.47e-10 1.34e-05 -11.0 2.46e-04    -  1.00e+00 1.00e+00H  1
  97  8.0371077e+00 4.13e-10 1.33e-06 -11.0 2.18e-04    -  1.00e+00 1.00e+00H  1
  98  8.0371077e+00 2.46e-12 7.69e-06 -11.0 7.06e-05    -  1.00e+00 1.00e+00H  1
  99  8.0371077e+00 5.66e-09 2.06e-06 -11.0 6.67e-05    -  1.00e+00 1.00e+00h  1
iter    objective    inf_pr   inf_du lg(mu)  ||d||  lg(rg) alpha_du alpha_pr  ls
 100  8.0371077e+00 4.70e-12 3.61e-05 -11.0 2.04e-04    -  1.00e+00 1.00e+00H  1
 101  8.0371077e+00 1.78e-08 1.94e-07 -11.0 1.90e-04    -  1.00e+00 1.00e+00h  1
 102  8.0371077e+00 6.74e-12 4.11e-07 -11.0 3.03e-06    -  1.00e+00 1.00e+00h  1
 103  8.0371077e+00 2.38e-12 1.80e-07 -11.0 1.86e-06    -  1.00e+00 1.00e+00h  1
 104  8.0371077e+00 1.33e-11 1.45e-07 -11.0 3.69e-06    -  1.00e+00 1.00e+00h  1
 105  8.0371077e+00 3.97e-14 2.07e-06 -11.0 4.76e-05    -  1.00e+00 1.00e+00H  1
 106  8.0371077e+00 2.59e-14 8.47e-07 -11.0 3.47e-05    -  1.00e+00 1.00e+00H  1
 107  8.0371077e+00 4.00e-14 2.84e-06 -11.0 2.76e-05    -  1.00e+00 1.00e+00H  1
 108  8.0371077e+00 4.75e-10 4.06e-07 -11.0 2.00e-05    -  1.00e+00 1.00e+00h  1
 109  8.0371077e+00 1.34e-14 1.01e-05 -11.0 2.98e-05    -  1.00e+00 1.00e+00H  1
iter    objective    inf_pr   inf_du lg(mu)  ||d||  lg(rg) alpha_du alpha_pr  ls
 110  8.0371077e+00 8.09e-10 4.58e-08 -11.0 2.90e-05    -  1.00e+00 1.00e+00h  1
 111  8.0371077e+00 3.26e-13 2.76e-08 -11.0 5.59e-07    -  1.00e+00 1.00e+00h  1
 112  8.0371077e+00 2.41e-14 4.52e-08 -11.0 1.04e-06    -  1.00e+00 1.00e+00H  1
 113  8.0371077e+00 1.20e-14 6.56e-08 -11.0 1.60e-06    -  1.00e+00 1.00e+00H  1
 114  8.0371077e+00 4.24e-13 1.16e-07 -11.0 9.57e-07    -  1.00e+00 1.00e+00h  1
 115  8.0371077e+00 4.41e-13 1.59e-08 -11.0 8.47e-07    -  1.00e+00 1.00e+00h  1
 116  8.0371077e+00 2.16e-13 1.06e-08 -11.0 4.34e-07    -  1.00e+00 1.00e+00h  1
 117  8.0371077e+00 1.41e-14 8.60e-07 -11.0 5.48e-06    -  1.00e+00 1.00e+00H  1
 118  8.0371077e+00 1.49e-11 1.57e-08 -11.0 3.37e-06    -  1.00e+00 1.00e+00h  1
 119  8.0371077e+00 3.85e-13 6.26e-09 -11.0 6.91e-07    -  1.00e+00 1.00e+00h  1
iter    objective    inf_pr   inf_du lg(mu)  ||d||  lg(rg) alpha_du alpha_pr  ls
 120  8.0371077e+00 1.91e-14 5.60e-08 -11.0 1.84e-06    -  1.00e+00 1.00e+00H  1
 121  8.0371077e+00 1.65e-14 9.12e-09 -11.0 1.46e-06    -  1.00e+00 1.00e+00H  1
 122  8.0371077e+00 4.88e-14 4.66e-09 -11.0 3.07e-06    -  1.00e+00 6.25e-02h  5
 123  8.0371077e+00 2.86e-14 6.13e-08 -11.0 9.90e-07    -  1.00e+00 1.00e+00H  1
 124  8.0371077e+00 2.00e-14 6.62e-09 -11.0 8.62e-07    -  1.00e+00 1.00e+00H  1

Number of Iterations....: 124

                                   (scaled)                 (unscaled)
Objective...............:   8.0371076951394649e+00    8.0371076951394649e+00
Dual infeasibility......:   6.6238848206012028e-09    6.6238848206012028e-09
Constraint violation....:   1.9957430161830984e-14    1.9957430161830984e-14
Variable bound violation:   0.0000000000000000e+00    0.0000000000000000e+00
Complementarity.........:   1.0000000000000001e-11    1.0000000000000001e-11
Overall NLP error.......:   6.6238848206012028e-09    6.6238848206012028e-09


Number of objective function evaluations             = 236
Number of objective gradient evaluations             = 125
Number of equality constraint evaluations            = 236
Number of inequality constraint evaluations          = 0
Number of equality constraint Jacobian evaluations   = 125
Number of inequality constraint Jacobian evaluations = 0
Number of Lagrangian Hessian evaluations             = 0
Total seconds in IPOPT                               = 9.353

EXIT: Solved To Acceptable Level.
